treewidth/data/SchlaefliGraph.gr
p tw 27 216
1 4
1 5
1 6
1 7
1 8
1 9
1 10
1 11
1 12
1 14
1 15
1 16
1 17
1 18
1 19
1 20
2 21
2 22
2 23
2 24
2 25
2 26
2 27
2 3
2 12
2 14
2 15
2 16
2 17
2 18
2 19
2 20
13 21
13 22
13 23
13 24
13 25
13 26
13 27
13 3
13 4
13 5
13 6
13 7
13 8
13 9
13 10
13 11
21 23
21 24
21 25
21 26
21 27
21 3
21 8
21 9
21 10
21 11
21 17
21 18
21 19
21 20
22 23
22 24
22 25
22 26
22 27
22 3
22 4
22 5
22 6
22 7
22 12
22 14
22 15
22 16
23 25
23 26
23 27
23 3
23 6
23 7
23 10
23 11
23 15
23 16
23 19
23 20
24 25
24 26
24 27
24 3
24 4
24 5
24 8
24 9
24 12
24 14
24 17
24 18
25 27
25 3
25 5
25 7
25 9
25 11
25 14
25 16
25 18
25 20
26 27
26 3
26 4
26 6
26 8
26 10
26 12
26 15
26 17
26 19
27 5
27 6
27 8
27 11
27 12
27 16
27 18
27 19
3 4
3 7
3 9
3 10
3 14
3 15
3 17
3 20
4 5
4 6
4 7
4 8
4 9
4 10
4 12
4 14
4 15
4 17
5 6
5 7
5 8
5 9
5 11
5 12
5 14
5 16
5 18
6 7
6 8
6 10
6 11
6 12
6 15
6 16
6 19
7 9
7 10
7 11
7 14
7 15
7 16
7 20
8 9
8 10
8 11
8 12
8 17
8 18
8 19
9 10
9 11
9 14
9 17
9 18
9 20
10 11
10 15
10 17
10 19
10 20
11 16
11 18
11 19
11 20
12 14
12 15
12 16
12 17
12 18
12 19
14 15
14 16
14 17
14 18
14 20
15 16
15 17
15 19
15 20
16 18
16 19
16 20
17 18
17 19
17 20
18 19
18 20
19 20
