treewidth/data/SchlaefliGraph.td
c width = 21, time = 0.379282
s td 4 22 27
b 1 2 3 6 7 8 9 10 11 12 13 14 15 16 17 18 19 20 22 24 25 26 27
b 2 3 5 6 7 8 9 10 11 12 13 14 15 16 17 18 19 20 22 24 25 26 27
b 3 1 3 4 5 6 7 8 9 10 11 12 13 14 15 16 17 18 19 20 22 24 26
b 4 2 3 6 7 8 9 10 11 13 15 16 17 18 19 20 21 22 23 24 25 26 27
2 3
1 2
1 4
